p cnf 777 1613              
-17 -16 -46 0
46 -48 0
16 17 -47 0
47 -48 0
48 -91 0
-19 -18 -49 0
49 -51 0
18 19 -50 0
50 -51 0
51 -91 0
-21 -20 -52 0
52 -54 0
20 21 -53 0
53 -54 0
54 -91 0
-23 -22 -55 0
55 -57 0
22 23 -56 0
56 -57 0
57 -91 0
-25 -24 -58 0
58 -60 0
24 25 -59 0
59 -60 0
60 -91 0
-27 -26 -61 0
61 -63 0
26 27 -62 0
62 -63 0
63 -91 0
-29 -28 -64 0
64 -66 0
28 29 -65 0
65 -66 0
66 -91 0
-31 -30 -67 0
67 -69 0
30 31 -68 0
68 -69 0
69 -91 0
-33 -32 -70 0
70 -72 0
32 33 -71 0
71 -72 0
72 -91 0
-35 -34 -73 0
73 -75 0
34 35 -74 0
74 -75 0
75 -91 0
-37 -36 -76 0
76 -78 0
36 37 -77 0
77 -78 0
78 -91 0
-39 -38 -79 0
79 -81 0
38 39 -80 0
80 -81 0
81 -91 0
-41 -40 -82 0
82 -84 0
40 41 -83 0
83 -84 0
84 -91 0
-43 -42 -85 0
85 -87 0
42 43 -86 0
86 -87 0
87 -91 0
-45 -44 -88 0
88 -90 0
44 45 -89 0
89 -90 0
90 -91 0
91 -659 0
34 227 0
-40 227 0
-34 40 -227 0
35 228 0
-41 228 0
-35 41 -228 0
36 229 0
-42 229 0
-36 42 -229 0
37 230 0
-43 230 0
-37 43 -230 0
38 231 0
-44 231 0
-38 44 -231 0
39 232 0
-45 232 0
-39 45 -232 0
-227 -228 -229 -230 -231 -232 233 0
40 234 0
-34 234 0
41 235 0
-35 235 0
42 236 0
-36 236 0
43 237 0
-37 237 0
44 238 0
-38 238 0
45 239 0
-39 239 0
-234 -235 -236 -237 -238 -239 240 0
-233 -240 241 0
-241 -242 0
28 212 0
-40 212 0
29 213 0
-41 213 0
30 214 0
-42 214 0
31 215 0
-43 215 0
32 216 0
-44 216 0
33 217 0
-45 217 0
-212 -213 -214 -215 -216 -217 218 0
40 219 0
-28 219 0
41 220 0
-29 220 0
42 221 0
-30 221 0
43 222 0
-31 222 0
44 223 0
-32 223 0
45 224 0
-33 224 0
-219 -220 -221 -222 -223 -224 225 0
-218 -225 226 0
-226 -242 0
28 197 0
-34 197 0
-28 34 -197 0
29 198 0
-35 198 0
-29 35 -198 0
30 199 0
-36 199 0
-30 36 -199 0
31 200 0
-37 200 0
-31 37 -200 0
32 201 0
-38 201 0
-32 38 -201 0
33 202 0
-39 202 0
-33 39 -202 0
-197 -198 -199 -200 -201 -202 203 0
34 204 0
-28 204 0
35 205 0
-29 205 0
36 206 0
-30 206 0
37 207 0
-31 207 0
38 208 0
-32 208 0
39 209 0
-33 209 0
-204 -205 -206 -207 -208 -209 210 0
-203 -210 211 0
-211 -242 0
22 182 0
-40 182 0
23 183 0
-41 183 0
24 184 0
-42 184 0
25 185 0
-43 185 0
26 186 0
-44 186 0
27 187 0
-45 187 0
-182 -183 -184 -185 -186 -187 188 0
40 189 0
-22 189 0
41 190 0
-23 190 0
42 191 0
-24 191 0
43 192 0
-25 192 0
44 193 0
-26 193 0
45 194 0
-27 194 0
-189 -190 -191 -192 -193 -194 195 0
-188 -195 196 0
-196 -242 0
22 167 0
-34 167 0
23 168 0
-35 168 0
24 169 0
-36 169 0
25 170 0
-37 170 0
26 171 0
-38 171 0
27 172 0
-39 172 0
-167 -168 -169 -170 -171 -172 173 0
34 174 0
-22 174 0
35 175 0
-23 175 0
36 176 0
-24 176 0
37 177 0
-25 177 0
38 178 0
-26 178 0
39 179 0
-27 179 0
-174 -175 -176 -177 -178 -179 180 0
-173 -180 181 0
-181 -242 0
22 152 0
-28 152 0
-22 28 -152 0
23 153 0
-29 153 0
-23 29 -153 0
24 154 0
-30 154 0
-24 30 -154 0
25 155 0
-31 155 0
-25 31 -155 0
26 156 0
-32 156 0
-26 32 -156 0
27 157 0
-33 157 0
-27 33 -157 0
-152 -153 -154 -155 -156 -157 158 0
28 159 0
-22 159 0
29 160 0
-23 160 0
30 161 0
-24 161 0
31 162 0
-25 162 0
32 163 0
-26 163 0
33 164 0
-27 164 0
-159 -160 -161 -162 -163 -164 165 0
-158 -165 166 0
-166 -242 0
16 137 0
-40 137 0
17 138 0
-41 138 0
18 139 0
-42 139 0
19 140 0
-43 140 0
20 141 0
-44 141 0
21 142 0
-45 142 0
-137 -138 -139 -140 -141 -142 143 0
40 144 0
-16 144 0
41 145 0
-17 145 0
42 146 0
-18 146 0
43 147 0
-19 147 0
44 148 0
-20 148 0
45 149 0
-21 149 0
-144 -145 -146 -147 -148 -149 150 0
-143 -150 151 0
-151 -242 0
16 122 0
-34 122 0
17 123 0
-35 123 0
18 124 0
-36 124 0
19 125 0
-37 125 0
20 126 0
-38 126 0
21 127 0
-39 127 0
-122 -123 -124 -125 -126 -127 128 0
34 129 0
-16 129 0
35 130 0
-17 130 0
36 131 0
-18 131 0
37 132 0
-19 132 0
38 133 0
-20 133 0
39 134 0
-21 134 0
-129 -130 -131 -132 -133 -134 135 0
-128 -135 136 0
-136 -242 0
16 107 0
-28 107 0
17 108 0
-29 108 0
18 109 0
-30 109 0
19 110 0
-31 110 0
20 111 0
-32 111 0
21 112 0
-33 112 0
-107 -108 -109 -110 -111 -112 113 0
28 114 0
-16 114 0
29 115 0
-17 115 0
30 116 0
-18 116 0
31 117 0
-19 117 0
32 118 0
-20 118 0
33 119 0
-21 119 0
-114 -115 -116 -117 -118 -119 120 0
-113 -120 121 0
-121 -242 0
16 92 0
-22 92 0
-16 22 -92 0
17 93 0
-23 93 0
-17 23 -93 0
18 94 0
-24 94 0
-18 24 -94 0
19 95 0
-25 95 0
-19 25 -95 0
20 96 0
-26 96 0
-20 26 -96 0
21 97 0
-27 97 0
-21 27 -97 0
-92 -93 -94 -95 -96 -97 98 0
22 99 0
-16 99 0
23 100 0
-17 100 0
24 101 0
-18 101 0
25 102 0
-19 102 0
26 103 0
-20 103 0
27 104 0
-21 104 0
-99 -100 -101 -102 -103 -104 105 0
-98 -105 106 0
-106 -242 0
242 -659 0
-16 -243 0
17 -243 0
16 -17 243 0
-1 243 -244 0
1 -243 -244 0
243 -243 -244 0
244 -273 0
-18 -245 0
19 -245 0
18 -19 245 0
-2 245 -246 0
2 -245 -246 0
245 -245 -246 0
246 -273 0
-20 -247 0
21 -247 0
20 -21 247 0
-3 247 -248 0
3 -247 -248 0
247 -247 -248 0
248 -273 0
-22 -249 0
23 -249 0
22 -23 249 0
-4 249 -250 0
4 -249 -250 0
249 -249 -250 0
250 -273 0
-24 -251 0
25 -251 0
24 -25 251 0
-5 251 -252 0
5 -251 -252 0
251 -251 -252 0
252 -273 0
-26 -253 0
27 -253 0
26 -27 253 0
-6 253 -254 0
6 -253 -254 0
253 -253 -254 0
254 -273 0
-28 -255 0
29 -255 0
28 -29 255 0
-7 255 -256 0
7 -255 -256 0
255 -255 -256 0
256 -273 0
-30 -257 0
31 -257 0
30 -31 257 0
-8 257 -258 0
8 -257 -258 0
257 -257 -258 0
258 -273 0
-32 -259 0
33 -259 0
32 -33 259 0
-9 259 -260 0
9 -259 -260 0
259 -259 -260 0
260 -273 0
-34 -261 0
35 -261 0
34 -35 261 0
-10 261 -262 0
10 -261 -262 0
261 -261 -262 0
262 -273 0
-36 -263 0
37 -263 0
36 -37 263 0
-11 263 -264 0
11 -263 -264 0
263 -263 -264 0
264 -273 0
-38 -265 0
39 -265 0
38 -39 265 0
-12 265 -266 0
12 -265 -266 0
265 -265 -266 0
266 -273 0
-40 -267 0
41 -267 0
40 -41 267 0
-13 267 -268 0
13 -267 -268 0
267 -267 -268 0
268 -273 0
-42 -269 0
43 -269 0
42 -43 269 0
-14 269 -270 0
14 -269 -270 0
269 -269 -270 0
270 -273 0
-44 -271 0
45 -271 0
44 -45 271 0
-15 271 -272 0
15 -271 -272 0
271 -271 -272 0
272 -273 0
273 -659 0
-20 -554 0
-18 -554 0
-16 -554 0
20 18 16 554 0
554 -556 0
17 -555 0
19 -555 0
21 -555 0
-17 -19 -21 555 0
555 -556 0
-554 -555 556 0
-3 -556 572 0
-572 587 0
-26 -557 0
-24 -557 0
-22 -557 0
26 24 22 557 0
557 -559 0
23 -558 0
25 -558 0
27 -558 0
-23 -25 -27 558 0
558 -559 0
-557 -558 559 0
-6 -559 575 0
-575 587 0
-32 -560 0
-30 -560 0
-28 -560 0
32 30 28 560 0
560 -562 0
29 -561 0
31 -561 0
33 -561 0
-29 -31 -33 561 0
561 -562 0
-560 -561 562 0
-9 -562 578 0
-578 587 0
-38 -563 0
-36 -563 0
-34 -563 0
38 36 34 563 0
563 -565 0
35 -564 0
37 -564 0
39 -564 0
-35 -37 -39 564 0
564 -565 0
-563 -564 565 0
-12 -565 581 0
-581 587 0
-44 -566 0
-42 -566 0
-40 -566 0
44 42 40 566 0
566 -568 0
41 -567 0
43 -567 0
45 -567 0
-41 -43 -45 567 0
567 -568 0
-566 -567 568 0
-15 -568 584 0
-584 587 0
-587 -593 0
556 559 562 565 568 -569 0
569 -593 0
-2 -556 571 0
-571 586 0
-5 -559 574 0
-574 586 0
-8 -562 577 0
-577 586 0
-11 -565 580 0
-580 586 0
-14 -568 583 0
-583 586 0
-586 -592 0
569 -592 0
-1 -556 570 0
-570 585 0
-4 -559 573 0
-573 585 0
-7 -562 576 0
-576 585 0
-10 -565 579 0
-579 585 0
-13 -568 582 0
-582 585 0
-585 -591 0
569 -591 0
593 592 591 657 0
592 591 641 0
2 -531 0
-21 -514 0
-18 -514 0
-16 -514 0
21 18 16 514 0
514 -516 0
17 -515 0
19 -515 0
20 -515 0
-17 -19 -20 515 0
515 -516 0
-514 -515 516 0
516 -531 0
-2 -516 531 0
-531 546 0
5 -534 0
-27 -517 0
-24 -517 0
-22 -517 0
27 24 22 517 0
517 -519 0
23 -518 0
25 -518 0
26 -518 0
-23 -25 -26 518 0
518 -519 0
-517 -518 519 0
519 -534 0
-5 -519 534 0
-534 546 0
8 -537 0
-33 -520 0
-30 -520 0
-28 -520 0
33 30 28 520 0
520 -522 0
29 -521 0
31 -521 0
32 -521 0
-29 -31 -32 521 0
521 -522 0
-520 -521 522 0
522 -537 0
-8 -522 537 0
-537 546 0
11 -540 0
-39 -523 0
-36 -523 0
-34 -523 0
39 36 34 523 0
523 -525 0
35 -524 0
37 -524 0
38 -524 0
-35 -37 -38 524 0
524 -525 0
-523 -524 525 0
525 -540 0
-11 -525 540 0
-540 546 0
14 -543 0
-45 -526 0
-42 -526 0
-40 -526 0
45 42 40 526 0
526 -528 0
41 -527 0
43 -527 0
44 -527 0
-41 -43 -44 527 0
527 -528 0
-526 -527 528 0
528 -543 0
-14 -528 543 0
-543 546 0
531 534 537 540 543 -546 0
-546 -552 0
516 519 522 525 528 -529 0
529 -552 0
1 -530 0
516 -530 0
-1 -516 530 0
-530 545 0
4 -533 0
519 -533 0
-4 -519 533 0
-533 545 0
7 -536 0
522 -536 0
-7 -522 536 0
-536 545 0
10 -539 0
525 -539 0
-10 -525 539 0
-539 545 0
13 -542 0
528 -542 0
-13 -528 542 0
-542 545 0
530 533 536 539 542 -545 0
-545 -551 0
529 -551 0
552 551 639 0
593 591 625 0
3 -492 0
-20 -474 0
-19 -474 0
-16 -474 0
20 19 16 474 0
474 -476 0
17 -475 0
18 -475 0
21 -475 0
-17 -18 -21 475 0
475 -476 0
-474 -475 476 0
476 -492 0
-3 -476 492 0
-492 507 0
6 -495 0
-26 -477 0
-25 -477 0
-22 -477 0
26 25 22 477 0
477 -479 0
23 -478 0
24 -478 0
27 -478 0
-23 -24 -27 478 0
478 -479 0
-477 -478 479 0
479 -495 0
-6 -479 495 0
-495 507 0
9 -498 0
-32 -480 0
-31 -480 0
-28 -480 0
32 31 28 480 0
480 -482 0
29 -481 0
30 -481 0
33 -481 0
-29 -30 -33 481 0
481 -482 0
-480 -481 482 0
482 -498 0
-9 -482 498 0
-498 507 0
12 -501 0
-38 -483 0
-37 -483 0
-34 -483 0
38 37 34 483 0
483 -485 0
35 -484 0
36 -484 0
39 -484 0
-35 -36 -39 484 0
484 -485 0
-483 -484 485 0
485 -501 0
-12 -485 501 0
-501 507 0
15 -504 0
-44 -486 0
-43 -486 0
-40 -486 0
44 43 40 486 0
486 -488 0
41 -487 0
42 -487 0
45 -487 0
-41 -42 -45 487 0
487 -488 0
-486 -487 488 0
488 -504 0
-15 -488 504 0
-504 507 0
492 495 498 501 504 -507 0
-507 -513 0
476 479 482 485 488 -489 0
489 -513 0
1 -490 0
476 -490 0
-1 -476 490 0
-490 505 0
4 -493 0
479 -493 0
-4 -479 493 0
-493 505 0
7 -496 0
482 -496 0
-7 -482 496 0
-496 505 0
10 -499 0
485 -499 0
-10 -485 499 0
-499 505 0
13 -502 0
488 -502 0
-13 -488 502 0
-502 505 0
490 493 496 499 502 -505 0
-505 -511 0
489 -511 0
513 511 621 0
593 592 609 0
3 -412 0
-20 -394 0
-18 -394 0
-17 -394 0
20 18 17 394 0
394 -396 0
16 -395 0
19 -395 0
21 -395 0
-16 -19 -21 395 0
395 -396 0
-394 -395 396 0
396 -412 0
-3 -396 412 0
-412 427 0
6 -415 0
-26 -397 0
-24 -397 0
-23 -397 0
26 24 23 397 0
397 -399 0
22 -398 0
25 -398 0
27 -398 0
-22 -25 -27 398 0
398 -399 0
-397 -398 399 0
399 -415 0
-6 -399 415 0
-415 427 0
9 -418 0
-32 -400 0
-30 -400 0
-29 -400 0
32 30 29 400 0
400 -402 0
28 -401 0
31 -401 0
33 -401 0
-28 -31 -33 401 0
401 -402 0
-400 -401 402 0
402 -418 0
-9 -402 418 0
-418 427 0
12 -421 0
-38 -403 0
-36 -403 0
-35 -403 0
38 36 35 403 0
403 -405 0
34 -404 0
37 -404 0
39 -404 0
-34 -37 -39 404 0
404 -405 0
-403 -404 405 0
405 -421 0
-12 -405 421 0
-421 427 0
15 -424 0
-44 -406 0
-42 -406 0
-41 -406 0
44 42 41 406 0
406 -408 0
40 -407 0
43 -407 0
45 -407 0
-40 -43 -45 407 0
407 -408 0
-406 -407 408 0
408 -424 0
-15 -408 424 0
-424 427 0
412 415 418 421 424 -427 0
-427 -433 0
396 399 402 405 408 -409 0
409 -433 0
2 -411 0
396 -411 0
-2 -396 411 0
-411 426 0
5 -414 0
399 -414 0
-5 -399 414 0
-414 426 0
8 -417 0
402 -417 0
-8 -402 417 0
-417 426 0
11 -420 0
405 -420 0
-11 -405 420 0
-420 426 0
14 -423 0
408 -423 0
-14 -408 423 0
-423 426 0
411 414 417 420 423 -426 0
-426 -432 0
409 -432 0
433 432 601 0
-21 -274 0
-19 -274 0
-17 -274 0
274 -276 0
16 -275 0
18 -275 0
20 -275 0
275 -276 0
-27 -277 0
-25 -277 0
-23 -277 0
277 -279 0
22 -278 0
24 -278 0
26 -278 0
278 -279 0
-33 -280 0
-31 -280 0
-29 -280 0
280 -282 0
28 -281 0
30 -281 0
32 -281 0
281 -282 0
-39 -283 0
-37 -283 0
-35 -283 0
283 -285 0
34 -284 0
36 -284 0
38 -284 0
284 -285 0
-45 -286 0
-43 -286 0
-41 -286 0
286 -288 0
40 -287 0
42 -287 0
44 -287 0
287 -288 0
276 279 282 285 288 -289 0
289 -308 0
1 -290 0
276 -290 0
4 -293 0
279 -293 0
7 -296 0
282 -296 0
10 -299 0
285 -299 0
13 -302 0
288 -302 0
290 293 296 299 302 -305 0
305 -308 0
289 -309 0
2 -291 0
276 -291 0
5 -294 0
279 -294 0
8 -297 0
282 -297 0
11 -300 0
285 -300 0
14 -303 0
288 -303 0
291 294 297 300 303 -306 0
306 -309 0
289 -310 0
3 -292 0
276 -292 0
6 -295 0
279 -295 0
9 -298 0
282 -298 0
12 -301 0
285 -301 0
15 -304 0
288 -304 0
292 295 298 301 304 -307 0
307 -310 0
-20 -314 0
-19 -314 0
-17 -314 0
20 19 17 314 0
314 -316 0
16 -315 0
18 -315 0
21 -315 0
-16 -18 -21 315 0
315 -316 0
-314 -315 316 0
-26 -317 0
-25 -317 0
-23 -317 0
26 25 23 317 0
317 -319 0
22 -318 0
24 -318 0
27 -318 0
-22 -24 -27 318 0
318 -319 0
-317 -318 319 0
-32 -320 0
-31 -320 0
-29 -320 0
32 31 29 320 0
320 -322 0
28 -321 0
30 -321 0
33 -321 0
-28 -30 -33 321 0
321 -322 0
-320 -321 322 0
-38 -323 0
-37 -323 0
-35 -323 0
38 37 35 323 0
323 -325 0
34 -324 0
36 -324 0
39 -324 0
-34 -36 -39 324 0
324 -325 0
-323 -324 325 0
-44 -326 0
-43 -326 0
-41 -326 0
44 43 41 326 0
326 -328 0
40 -327 0
42 -327 0
45 -327 0
-40 -42 -45 327 0
327 -328 0
-326 -327 328 0
316 319 322 325 328 -329 0
329 -348 0
1 -330 0
316 -330 0
4 -333 0
319 -333 0
7 -336 0
322 -336 0
10 -339 0
325 -339 0
13 -342 0
328 -342 0
330 333 336 339 342 -345 0
345 -348 0
329 -349 0
2 -331 0
316 -331 0
5 -334 0
319 -334 0
8 -337 0
322 -337 0
11 -340 0
325 -340 0
14 -343 0
328 -343 0
331 334 337 340 343 -346 0
346 -349 0
3 -332 0
316 -332 0
-3 -316 332 0
-332 347 0
6 -335 0
319 -335 0
-6 -319 335 0
-335 347 0
9 -338 0
322 -338 0
-9 -322 338 0
-338 347 0
12 -341 0
325 -341 0
-12 -325 341 0
-341 347 0
15 -344 0
328 -344 0
-15 -328 344 0
-344 347 0
332 335 338 341 344 -347 0
-347 -353 0
329 -353 0
-21 -354 0
-18 -354 0
-17 -354 0
21 18 17 354 0
354 -356 0
16 -355 0
19 -355 0
20 -355 0
-16 -19 -20 355 0
355 -356 0
-354 -355 356 0
-27 -357 0
-24 -357 0
-23 -357 0
27 24 23 357 0
357 -359 0
22 -358 0
25 -358 0
26 -358 0
-22 -25 -26 358 0
358 -359 0
-357 -358 359 0
-33 -360 0
-30 -360 0
-29 -360 0
33 30 29 360 0
360 -362 0
28 -361 0
31 -361 0
32 -361 0
-28 -31 -32 361 0
361 -362 0
-360 -361 362 0
-39 -363 0
-36 -363 0
-35 -363 0
39 36 35 363 0
363 -365 0
34 -364 0
37 -364 0
38 -364 0
-34 -37 -38 364 0
364 -365 0
-363 -364 365 0
-45 -366 0
-42 -366 0
-41 -366 0
45 42 41 366 0
366 -368 0
40 -367 0
43 -367 0
44 -367 0
-40 -43 -44 367 0
367 -368 0
-366 -367 368 0
356 359 362 365 368 -369 0
369 -388 0
1 -370 0
356 -370 0
4 -373 0
359 -373 0
7 -376 0
362 -376 0
10 -379 0
365 -379 0
13 -382 0
368 -382 0
370 373 376 379 382 -385 0
385 -388 0
369 -390 0
3 -372 0
356 -372 0
6 -375 0
359 -375 0
9 -378 0
362 -378 0
12 -381 0
365 -381 0
15 -384 0
368 -384 0
372 375 378 381 384 -387 0
387 -390 0
2 -371 0
356 -371 0
-2 -356 371 0
-371 386 0
5 -374 0
359 -374 0
-5 -359 374 0
-374 386 0
8 -377 0
362 -377 0
-8 -362 377 0
-377 386 0
11 -380 0
365 -380 0
-11 -365 380 0
-380 386 0
14 -383 0
368 -383 0
-14 -368 383 0
-383 386 0
371 374 377 380 383 -386 0
-386 -392 0
369 -392 0
409 -428 0
1 -410 0
396 -410 0
4 -413 0
399 -413 0
7 -416 0
402 -416 0
10 -419 0
405 -419 0
13 -422 0
408 -422 0
410 413 416 419 422 -425 0
425 -428 0
-21 -434 0
-19 -434 0
-16 -434 0
21 19 16 434 0
434 -436 0
17 -435 0
18 -435 0
20 -435 0
-17 -18 -20 435 0
435 -436 0
-434 -435 436 0
-27 -437 0
-25 -437 0
-22 -437 0
27 25 22 437 0
437 -439 0
23 -438 0
24 -438 0
26 -438 0
-23 -24 -26 438 0
438 -439 0
-437 -438 439 0
-33 -440 0
-31 -440 0
-28 -440 0
33 31 28 440 0
440 -442 0
29 -441 0
30 -441 0
32 -441 0
-29 -30 -32 441 0
441 -442 0
-440 -441 442 0
-39 -443 0
-37 -443 0
-34 -443 0
39 37 34 443 0
443 -445 0
35 -444 0
36 -444 0
38 -444 0
-35 -36 -38 444 0
444 -445 0
-443 -444 445 0
-45 -446 0
-43 -446 0
-40 -446 0
45 43 40 446 0
446 -448 0
41 -447 0
42 -447 0
44 -447 0
-41 -42 -44 447 0
447 -448 0
-446 -447 448 0
436 439 442 445 448 -449 0
449 -469 0
2 -451 0
436 -451 0
5 -454 0
439 -454 0
8 -457 0
442 -457 0
11 -460 0
445 -460 0
14 -463 0
448 -463 0
451 454 457 460 463 -466 0
466 -469 0
449 -470 0
3 -452 0
436 -452 0
6 -455 0
439 -455 0
9 -458 0
442 -458 0
12 -461 0
445 -461 0
15 -464 0
448 -464 0
452 455 458 461 464 -467 0
467 -470 0
1 -450 0
436 -450 0
-1 -436 450 0
-450 465 0
4 -453 0
439 -453 0
-4 -439 453 0
-453 465 0
7 -456 0
442 -456 0
-7 -442 456 0
-456 465 0
10 -459 0
445 -459 0
-10 -445 459 0
-459 465 0
13 -462 0
448 -462 0
-13 -448 462 0
-462 465 0
450 453 456 459 462 -465 0
-465 -471 0
449 -471 0
489 -509 0
2 -491 0
476 -491 0
5 -494 0
479 -494 0
8 -497 0
482 -497 0
11 -500 0
485 -500 0
14 -503 0
488 -503 0
491 494 497 500 503 -506 0
506 -509 0
529 -550 0
3 -532 0
516 -532 0
6 -535 0
519 -535 0
9 -538 0
522 -538 0
12 -541 0
525 -541 0
15 -544 0
528 -544 0
532 535 538 541 544 -547 0
547 -550 0
309 -594 0
310 -594 0
349 -596 0
329 -350 0
347 -350 0
350 -596 0
369 -389 0
386 -389 0
389 -598 0
390 -598 0
469 -602 0
470 -602 0
509 -604 0
489 -510 0
507 -510 0
510 -604 0
529 -549 0
546 -549 0
549 -606 0
550 -606 0
308 -610 0
310 -610 0
348 -612 0
350 -612 0
388 -614 0
390 -614 0
428 -616 0
409 -430 0
427 -430 0
430 -616 0
449 -468 0
465 -468 0
468 -618 0
470 -618 0
529 -548 0
545 -548 0
548 -622 0
550 -622 0
308 -626 0
309 -626 0
348 -628 0
349 -628 0
388 -630 0
389 -630 0
428 -632 0
409 -429 0
426 -429 0
429 -632 0
468 -634 0
469 -634 0
489 -508 0
505 -508 0
508 -636 0
509 -636 0
308 -642 0
309 -642 0
310 -642 0
348 -644 0
349 -644 0
350 -644 0
388 -646 0
389 -646 0
390 -646 0
428 -648 0
429 -648 0
430 -648 0
468 -650 0
469 -650 0
470 -650 0
508 -652 0
509 -652 0
510 -652 0
548 -654 0
549 -654 0
550 -654 0
-657 -641 -639 -625 -621 -609 -601 308 309 310 348 349 353 388 390 392 428 432 433 469 470 471 509 511 513 550 551 552 591 592 593 594 596 598 602 604 606 610 612 614 616 618 622 626 628 630 632 634 636 642 644 646 648 650 652 654 -658 0
658 -659 0
-1 4 -660 0
660 -688 0
-1 -4 661 0
1 4 661 0
-4 4 661 0
-2 5 -662 0
-661 662 -663 0
663 -688 0
-2 -5 664 0
2 5 664 0
-5 5 664 0
-661 -664 665 0
-3 6 -666 0
-665 666 -667 0
667 -688 0
-3 -6 668 0
3 6 668 0
-6 6 668 0
-665 -668 669 0
-669 92 -670 0
670 -688 0
-16 -22 671 0
16 22 671 0
-22 22 671 0
-669 -671 672 0
-672 93 -673 0
673 -688 0
-17 -23 674 0
17 23 674 0
-23 23 674 0
-672 -674 675 0
-675 94 -676 0
676 -688 0
-18 -24 677 0
18 24 677 0
-24 24 677 0
-675 -677 678 0
-678 95 -679 0
679 -688 0
-19 -25 680 0
19 25 680 0
-25 25 680 0
-678 -680 681 0
-681 96 -682 0
682 -688 0
-20 -26 683 0
20 26 683 0
-26 26 683 0
-681 -683 684 0
-684 97 -685 0
685 -688 0
688 -776 0
-4 7 -689 0
689 -717 0
-4 -7 690 0
4 7 690 0
-7 7 690 0
-5 8 -691 0
-690 691 -692 0
692 -717 0
-5 -8 693 0
5 8 693 0
-8 8 693 0
-690 -693 694 0
-6 9 -695 0
-694 695 -696 0
696 -717 0
-6 -9 697 0
6 9 697 0
-9 9 697 0
-694 -697 698 0
-698 152 -699 0
699 -717 0
-22 -28 700 0
22 28 700 0
-28 28 700 0
-698 -700 701 0
-701 153 -702 0
702 -717 0
-23 -29 703 0
23 29 703 0
-29 29 703 0
-701 -703 704 0
-704 154 -705 0
705 -717 0
-24 -30 706 0
24 30 706 0
-30 30 706 0
-704 -706 707 0
-707 155 -708 0
708 -717 0
-25 -31 709 0
25 31 709 0
-31 31 709 0
-707 -709 710 0
-710 156 -711 0
711 -717 0
-26 -32 712 0
26 32 712 0
-32 32 712 0
-710 -712 713 0
-713 157 -714 0
714 -717 0
717 -776 0
-7 10 -718 0
718 -746 0
-7 -10 719 0
7 10 719 0
-10 10 719 0
-8 11 -720 0
-719 720 -721 0
721 -746 0
-8 -11 722 0
8 11 722 0
-11 11 722 0
-719 -722 723 0
-9 12 -724 0
-723 724 -725 0
725 -746 0
-9 -12 726 0
9 12 726 0
-12 12 726 0
-723 -726 727 0
-727 197 -728 0
728 -746 0
-28 -34 729 0
28 34 729 0
-34 34 729 0
-727 -729 730 0
-730 198 -731 0
731 -746 0
-29 -35 732 0
29 35 732 0
-35 35 732 0
-730 -732 733 0
-733 199 -734 0
734 -746 0
-30 -36 735 0
30 36 735 0
-36 36 735 0
-733 -735 736 0
-736 200 -737 0
737 -746 0
-31 -37 738 0
31 37 738 0
-37 37 738 0
-736 -738 739 0
-739 201 -740 0
740 -746 0
-32 -38 741 0
32 38 741 0
-38 38 741 0
-739 -741 742 0
-742 202 -743 0
743 -746 0
746 -776 0
-10 13 -747 0
747 -775 0
-10 -13 748 0
10 13 748 0
-13 13 748 0
-11 14 -749 0
-748 749 -750 0
750 -775 0
-11 -14 751 0
11 14 751 0
-14 14 751 0
-748 -751 752 0
-12 15 -753 0
-752 753 -754 0
754 -775 0
-12 -15 755 0
12 15 755 0
-15 15 755 0
-752 -755 756 0
-756 227 -757 0
757 -775 0
-34 -40 758 0
34 40 758 0
-40 40 758 0
-756 -758 759 0
-759 228 -760 0
760 -775 0
-35 -41 761 0
35 41 761 0
-41 41 761 0
-759 -761 762 0
-762 229 -763 0
763 -775 0
-36 -42 764 0
36 42 764 0
-42 42 764 0
-762 -764 765 0
-765 230 -766 0
766 -775 0
-37 -43 767 0
37 43 767 0
-43 43 767 0
-765 -767 768 0
-768 231 -769 0
769 -775 0
-38 -44 770 0
38 44 770 0
-44 44 770 0
-768 -770 771 0
-771 232 -772 0
772 -775 0
775 -776 0
659 0
776 0
